CMD:
./solvers/bin/cadical --plain --no-reduce -t 1600 ./data/cnfs//qspiflash_dualflexpress_divthree-p164/qspiflash_dualflexpress_divthree-p164.15.cnf

c --- [ banner ] -------------------------------------------------------------
c 
c CaDiCaL SAT Solver
c Copyright (c) 2016-2024
c A. Biere, M. Fleury, N. Froleyks, K. Fazekas, F. Pollitt, T. Faller
c JKU Linz, University of Freiburg, TU Wien
c 
c Version 2.1.3 5296d3d2a9bf48c154ab2acb5e44625776d821bf
c g++ (Gentoo 12.3.1_p20230526 p2) 12.3.1 20230526 -Wall -Wextra -O3 -DNDEBUG
c Sat Aug 9 07:26:21 PDT 2025 Linux cedar2.int.cedar.computecanada.ca 5.14.0-362.24.2.el9_3.x86_64 x86_64
c 
c --- [ limit ] --------------------------------------------------------------
c 
c setting time limit to 1600 seconds real time (due to '-t 1600')
c 
c --- [ parsing input ] ------------------------------------------------------
c 
c reading DIMACS file from './data/cnfs//qspiflash_dualflexpress_divthree-p164/qspiflash_dualflexpress_divthree-p164.15.cnf'
c opening file to read './data/cnfs//qspiflash_dualflexpress_divthree-p164/qspiflash_dualflexpress_divthree-p164.15.cnf'
c found 'p cnf 47654 137954' header
c parsed 137954 clauses in 0.03 seconds process time
c 
c --- [ options ] ------------------------------------------------------------
c 
c   --compact=false                (different from default 'true')
c   --decompose=false              (different from default 'true')
c   --deduplicate=false            (different from default 'true')
c   --elim=false                   (different from default 'true')
c   --probe=false                  (different from default 'true')
c   --reduce=false                 (different from default 'true')
c   --subsume=false                (different from default 'true')
c   --ternary=false                (different from default 'true')
c   --transred=false               (different from default 'true')
c   --vivify=false                 (different from default 'true')
c 
c --- [ solving ] ------------------------------------------------------------
c 
c time measured in process time since initialization
c 
c  seconds  reductions  redundant  irredundant
c         MB    restarts       trail       variables
c          level   conflicts       glue         remaining
c 
c *  0.03 24  0 0   0    0    0  0% 0 122409 37861 79%
c {  0.03 24  0 0   0    0    0  0% 0 122409 37861 79%
c i  0.03 24  1 0   0    1    0 22% 0 122409 37851 79%
c i  0.03 24 18 0   0    3    1 23% 0 122409 37835 79%
c i  0.03 24 25 0   0   15    8 25% 2 122409 37812 79%
c i  0.04 24 22 0   0   23   13 26% 2 122409 37800 79%
c i  0.04 24 21 0   0   25   14 26% 1 122409 37788 79%
c i  0.04 25 12 0   0   63   48 27% 2 122409 37768 79%
c i  0.04 25  8 0   0  145  115 30% 2 122409 37760 79%
c i  0.04 25  8 0   0  153  121 30% 2 122409 37747 79%
c i  0.05 25  9 0   6  200  160 31% 2 122409 37662 79%
c i  0.05 25  9 0   6  204  163 31% 2 122409 37655 79%
c i  0.05 25  9 0   9  249  205 31% 2 122409 37549 79%
c i  0.05 25  9 0   9  251  206 31% 2 122409 37539 79%
c i  0.05 25  8 0   9  257  210 31% 2 122409 37502 79%
c }  0.05 25  8 0   9  260  210 31% 2 122409 37442 79%
c 0  0.05 25  8 0   9  260  210 31% 2 122409 37442 79%
c 
c --- [ result ] -------------------------------------------------------------
c 
s UNSATISFIABLE
c 
c --- [ run-time profiling ] -------------------------------------------------
c 
c process time taken by individual solving procedures
c (percentage relative to process time for solving)
c 
c         0.03   99.62% search
c         0.03   97.43% parse
c         0.02   78.77% unstable
c         0.01   20.80% lucky
c         0.00    0.00% simplify
c   =================================
c         0.03   50.26% solve
c 
c last line shows process time for solving
c (percentage relative to total process time)
c 
c --- [ statistics ] ---------------------------------------------------------
c 
c chronological:               113        43.46 %  of conflicts
c conflicts:                   260      9516.84    per second
c decisions:                   486     17789.17    per second
c fixed:                     10178        21.36 %  of all variables
c learned:                     244        93.85 %  per conflict
c learned_lits:               1959       100.00 %  learned literals
c minimized:                     0         0.00 %  learned literals
c shrunken:                    553        28.23 %  learned literals
c minishrunken:                154         7.86 %  learned literals
c otfs:                          0         0.00 %  of conflict
c propagations:             382310        13.99 M  per second
c restarts:                      9        28.89    interval
c subsumed:                     17         0.01 %  of all clauses
c 
c seconds are measured in process time for solving
c 
c --- [ resources ] ----------------------------------------------------------
c 
c total process time since initialization:         0.05    seconds
c total real time since initialization:            0.06    seconds
c maximum resident set size of process:           29.22    MB
c 
c --- [ shutting down ] ------------------------------------------------------
c 
c exit 20
